51
100
80	2
79	1
78	3
77	1
76	2
75	1
74	2
73	5
71	3
70	2
69	3
68	1
67	1
66	2
65	1
64	1
63	1
62	1
61	1
58	1
57	3
56	2
55	3
54	3
53	5
52	2
51	1
50	1
48	2
47	3
46	1
45	2
44	1
42	1
41	1
39	1
38	1
36	1
35	1
34	5
33	2
32	1
31	3
29	2
28	3
27	2
26	1
24	3
23	4
22	2
20	2
